\ LP format - for model browsing. Use MPS format to capture full model detail.
Maximize
  zed
Subject To
 R0: n[0] + n[1] <= 150
 R1: 6 n[0] + 3 n[1] <= 100
 R2: 4 n[0] + 2 n[1] <= 30
 R3: - 5 n[0] - 3 n[1] + zed = 0
Bounds
End
